DIMACS2
40 226 260 219 77 58 406 300 543 26 107 439 331 555 217 336 352 135 35 573 252 562 446 342 625 45 528 536 130 129 324 163 270 618 338 269 203 278 103 332 227
p edge 640 1766
e 0 402 1.0
e 0 49 1.0
e 1 308 1.0
e 1 531 1.0
e 2 334 1.0
e 2 375 1.0
e 3 266 1.0
e 3 125 1.0
e 4 510 1.0
e 4 516 1.0
e 5 337 1.0
e 5 443 1.0
e 6 547 1.0
e 6 353 1.0
e 7 272 1.0
e 7 453 1.0
e 8 183 1.0
e 8 550 1.0
e 9 145 1.0
e 9 201 2.0
e 10 200 1.0
e 10 353 1.0
e 11 357 2.0
e 11 369 1.0
e 12 173 1.0
e 12 357 1.0
e 13 169 1.0
e 13 460 1.0
e 14 475 1.0
e 14 272 1.0
e 15 235 2.0
e 15 325 1.0
e 16 224 1.0
e 16 276 1.0
e 17 172 2.0
e 17 143 8.0
e 17 573 38.0
e 18 306 7.0
e 18 336 47.0
e 18 267 4.0
e 18 287 10.0
e 18 307 9.0
e 19 356 3.0
e 19 315 2.0
e 20 52 1.0
e 20 275 1.0
e 21 517 2.0
e 21 246 1.0
e 22 446 41.0
e 22 475 1.0
e 23 69 1.0
e 23 45 37.0
e 24 597 1.0
e 24 385 1.0
e 25 336 8.0
e 25 249 1.0
e 26 63 2.0
e 26 288 32.0
e 26 269 29.0
e 26 90 42.0
e 26 292 32.0
e 26 87 10.0
e 26 556 34.0
e 26 527 3.0
e 26 58 15.0
e 26 236 38.0
e 26 627 24.0
e 26 628 29.0
e 26 277 42.0
e 26 59 33.0
e 26 334 44.0
e 26 307 7.0
e 26 499 19.0
e 27 233 1.0
e 27 626 2.0
e 28 371 2.0
e 28 130 40.0
e 29 559 2.0
e 29 310 2.0
e 30 554 1.0
e 30 632 1.0
e 31 127 1.0
e 31 148 1.0
e 32 175 1.0
e 32 618 30.0
e 33 116 1.0
e 33 591 1.0
e 34 451 1.0
e 34 102 1.0
e 35 315 7.0
e 35 46 42.0
e 35 543 24.0
e 35 100 9.0
e 35 4 16.0
e 35 521 6.0
e 35 553 36.0
e 35 55 29.0
e 35 229 17.0
e 35 42 4.0
e 35 407 19.0
e 35 470 6.0
e 35 600 48.0
e 35 135 17.0
e 35 555 26.0
e 35 204 44.0
e 36 212 1.0
e 36 475 2.0
e 37 236 1.0
e 37 432 2.0
e 38 345 2.0
e 38 111 1.0
e 39 319 2.0
e 39 550 1.0
e 40 350 1.0
e 40 22 1.0
e 41 433 1.0
e 41 121 1.0
e 42 187 2.0
e 42 416 2.0
e 43 283 1.0
e 43 321 1.0
e 44 94 1.0
e 44 343 1.0
e 45 165 35.0
e 45 551 25.0
e 45 117 12.0
e 45 24 10.0
e 45 345 43.0
e 45 108 49.0
e 45 621 9.0
e 45 564 14.0
e 45 502 20.0
e 45 596 28.0
e 45 612 30.0
e 45 86 43.0
e 45 96 33.0
e 45 5 6.0
e 45 304 22.0
e 46 441 2.0
e 46 445 2.0
e 47 42 1.0
e 47 16 1.0
e 48 101 1.0
e 48 121 1.0
e 49 112 1.0
e 49 469 1.0
e 50 560 1.0
e 50 34 2.0
e 51 581 1.0
e 51 57 2.0
e 52 17 5.0
e 52 174 1.0
e 53 574 1.0
e 53 295 1.0
e 54 376 1.0
e 54 557 1.0
e 55 53 1.0
e 55 419 1.0
e 56 84 1.0
e 56 347 1.0
e 57 615 2.0
e 57 545 1.0
e 58 235 32.0
e 58 215 37.0
e 58 337 46.0
e 58 601 22.0
e 58 271 34.0
e 58 568 20.0
e 58 483 25.0
e 58 97 42.0
e 58 465 26.0
e 58 605 32.0
e 58 636 44.0
e 58 435 6.0
e 58 242 36.0
e 58 463 19.0
e 59 397 1.0
e 59 509 1.0
e 60 543 2.0
e 60 82 1.0
e 61 456 1.0
e 61 614 1.0
e 62 231 1.0
e 62 226 32.0
e 63 240 1.0
e 63 299 1.0
e 64 295 1.0
e 64 111 1.0
e 65 209 2.0
e 65 223 1.0
e 66 592 1.0
e 66 484 1.0
e 67 207 1.0
e 67 121 1.0
e 68 78 2.0
e 68 324 22.0
e 69 298 1.0
e 69 281 1.0
e 70 275 1.0
e 70 526 4.0
e 71 285 1.0
e 71 615 1.0
e 72 474 1.0
e 72 517 1.0
e 73 57 2.0
e 73 533 2.0
e 74 562 32.0
e 74 601 1.0
e 75 367 2.0
e 75 191 1.0
e 76 150 2.0
e 76 570 1.0
e 77 381 38.0
e 77 107 38.0
e 77 58 35.0
e 77 438 25.0
e 77 138 21.0
e 77 313 34.0
e 77 222 17.0
e 77 142 10.0
e 77 561 21.0
e 77 103 28.0
e 77 424 17.0
e 77 197 36.0
e 77 278 21.0
e 77 242 14.0
e 77 319 14.0
e 77 465 48.0
e 77 520 41.0
e 78 531 1.0
e 78 321 2.0
e 79 481 1.0
e 79 165 1.0
e 80 299 2.0
e 80 454 1.0
e 81 109 1.0
e 81 33 2.0
e 82 241 1.0
e 82 209 1.0
e 83 211 1.0
e 83 29 1.0
e 84 241 1.0
e 84 527 4.0
e 85 547 1.0
e 85 256 1.0
e 86 441 1.0
e 86 80 2.0
e 87 360 2.0
e 87 19 1.0
e 88 535 1.0
e 88 182 1.0
e 89 144 2.0
e 89 252 6.0
e 90 633 1.0
e 90 109 1.0
e 91 94 1.0
e 91 593 3.0
e 92 553 1.0
e 92 551 1.0
e 93 98 1.0
e 93 314 1.0
e 94 610 1.0
e 94 311 2.0
e 95 527 5.0
e 95 182 1.0
e 96 508 2.0
e 96 11 1.0
e 97 579 1.0
e 97 604 2.0
e 98 5 1.0
e 98 50 2.0
e 99 324 38.0
e 99 276 3.0
e 100 542 1.0
e 100 216 1.0
e 101 533 1.0
e 101 262 1.0
e 102 335 3.0
e 102 410 1.0
e 103 358 5.0
e 103 437 12.0
e 103 185 45.0
e 103 195 37.0
e 103 68 25.0
e 103 393 16.0
e 103 526 12.0
e 103 244 29.0
e 103 421 41.0
e 103 125 49.0
e 103 379 41.0
e 103 278 29.0
e 103 157 7.0
e 103 176 45.0
e 104 388 1.0
e 104 332 18.0
e 105 198 2.0
e 105 58 11.0
e 106 317 2.0
e 106 191 1.0
e 107 614 32.0
e 107 558 3.0
e 107 188 22.0
e 107 616 44.0
e 107 519 42.0
e 107 467 24.0
e 107 394 32.0
e 107 562 3.0
e 107 425 46.0
e 107 569 38.0
e 107 455 41.0
e 107 83 42.0
e 107 200 32.0
e 107 331 26.0
e 108 113 2.0
e 108 497 1.0
e 109 560 1.0
e 109 432 1.0
e 110 20 1.0
e 110 286 1.0
e 111 118 1.0
e 111 5 1.0
e 112 378 1.0
e 112 119 1.0
e 113 583 1.0
e 113 479 1.0
e 114 466 1.0
e 114 115 1.0
e 115 123 1.0
e 115 609 2.0
e 116 542 1.0
e 116 535 1.0
e 117 515 1.0
e 117 133 1.0
e 118 168 1.0
e 118 247 1.0
e 119 622 1.0
e 119 295 1.0
e 120 245 1.0
e 120 410 1.0
e 121 256 1.0
e 121 248 1.0
e 122 403 1.0
e 122 537 1.0
e 123 620 1.0
e 123 132 1.0
e 124 577 2.0
e 124 276 2.0
e 125 241 1.0
e 125 426 1.0
e 126 306 1.0
e 126 398 1.0
e 127 538 1.0
e 127 459 1.0
e 128 169 2.0
e 128 129 31.0
e 129 447 16.0
e 129 565 1.0
e 129 75 4.0
e 129 563 14.0
e 129 151 27.0
e 129 6 23.0
e 129 362 43.0
e 129 412 30.0
e 129 534 25.0
e 129 154 20.0
e 129 41 31.0
e 129 177 36.0
e 129 525 40.0
e 129 287 35.0
e 129 58 43.0
e 130 437 42.0
e 130 321 3.0
e 130 332 29.0
e 130 188 2.0
e 130 617 39.0
e 130 80 6.0
e 130 431 8.0
e 130 455 43.0
e 130 193 13.0
e 130 536 20.0
e 130 305 30.0
e 130 511 7.0
e 130 213 19.0
e 130 310 2.0
e 130 346 16.0
e 130 43 24.0
e 131 320 1.0
e 131 14 1.0
e 132 510 1.0
e 132 599 1.0
e 133 532 1.0
e 133 243 2.0
e 134 395 1.0
e 134 619 1.0
e 135 19 20.0
e 135 48 18.0
e 135 617 33.0
e 135 543 22.0
e 135 405 37.0
e 135 146 44.0
e 135 360 23.0
e 135 490 23.0
e 135 147 13.0
e 135 148 33.0
e 135 304 7.0
e 135 44 15.0
e 135 162 3.0
e 135 68 7.0
e 135 199 9.0
e 135 606 30.0
e 136 480 2.0
e 136 263 1.0
e 137 385 1.0
e 137 170 2.0
e 138 609 1.0
e 138 594 1.0
e 139 16 1.0
e 139 1 1.0
e 140 173 1.0
e 140 541 1.0
e 141 311 2.0
e 141 445 1.0
e 142 504 2.0
e 142 543 39.0
e 143 469 1.0
e 143 344 1.0
e 144 104 3.0
e 144 71 1.0
e 145 472 1.0
e 145 153 1.0
e 146 78 1.0
e 146 464 1.0
e 147 119 1.0
e 147 222 1.0
e 148 623 1.0
e 148 205 1.0
e 149 476 1.0
e 149 464 1.0
e 150 113 2.0
e 150 598 1.0
e 151 556 2.0
e 151 102 1.0
e 152 476 2.0
e 152 279 1.0
e 153 94 1.0
e 153 155 1.0
e 154 551 1.0
e 154 143 2.0
e 155 72 3.0
e 155 89 1.0
e 156 52 1.0
e 156 224 1.0
e 157 190 1.0
e 157 102 1.0
e 158 401 1.0
e 158 67 1.0
e 159 81 2.0
e 159 378 2.0
e 160 604 1.0
e 160 32 1.0
e 161 288 1.0
e 161 58 45.0
e 162 221 2.0
e 162 445 1.0
e 163 224 31.0
e 163 527 45.0
e 163 460 38.0
e 163 340 17.0
e 163 477 14.0
e 163 637 25.0
e 163 584 7.0
e 163 25 22.0
e 163 592 23.0
e 163 26 44.0
e 163 524 9.0
e 163 379 29.0
e 163 541 20.0
e 163 578 3.0
e 164 536 30.0
e 164 25 1.0
e 165 300 38.0
e 165 449 1.0
e 166 23 1.0
e 166 547 1.0
e 167 415 1.0
e 167 501 1.0
e 168 376 2.0
e 168 612 3.0
e 169 320 1.0
e 169 609 1.0
e 170 298 1.0
e 170 597 1.0
e 171 555 31.0
e 171 210 1.0
e 172 248 2.0
e 172 489 1.0
e 173 282 1.0
e 173 160 1.0
e 174 506 1.0
e 174 508 1.0
e 175 325 2.0
e 175 579 1.0
e 176 308 1.0
e 176 3 1.0
e 177 400 3.0
e 177 89 3.0
e 178 282 1.0
e 178 122 1.0
e 179 529 3.0
e 179 597 1.0
e 180 462 1.0
e 180 121 1.0
e 181 393 2.0
e 181 32 1.0
e 182 276 1.0
e 182 485 1.0
e 183 93 1.0
e 183 263 1.0
e 184 622 1.0
e 184 221 2.0
e 185 121 1.0
e 185 192 1.0
e 186 67 1.0
e 186 161 2.0
e 187 318 1.0
e 187 160 1.0
e 188 50 1.0
e 188 47 3.0
e 189 377 1.0
e 189 611 1.0
e 190 8 1.0
e 190 59 1.0
e 191 69 1.0
e 191 498 1.0
e 192 355 1.0
e 192 544 1.0
e 193 384 2.0
e 193 252 30.0
e 194 418 1.0
e 194 412 1.0
e 195 180 1.0
e 195 63 1.0
e 196 233 1.0
e 196 428 1.0
e 197 619 1.0
e 197 225 1.0
e 198 145 1.0
e 198 557 1.0
e 199 161 1.0
e 199 366 2.0
e 200 181 1.0
e 200 309 2.0
e 201 506 1.0
e 201 276 1.0
e 202 595 1.0
e 202 198 1.0
e 203 616 12.0
e 203 315 10.0
e 203 38 28.0
e 203 625 39.0
e 203 30 36.0
e 203 91 27.0
e 203 412 4.0
e 203 434 37.0
e 203 621 49.0
e 203 28 15.0
e 203 336 4.0
e 203 103 40.0
e 203 403 49.0
e 203 12 31.0
e 203 555 9.0
e 203 394 41.0
e 203 199 15.0
e 204 303 2.0
e 204 22 2.0
e 205 126 1.0
e 205 336 40.0
e 206 581 1.0
e 206 572 1.0
e 207 196 1.0
e 207 9 1.0
e 208 85 1.0
e 208 449 2.0
e 209 452 2.0
e 209 584 1.0
e 210 523 2.0
e 210 462 1.0
e 211 81 2.0
e 211 178 1.0
e 212 330 2.0
e 212 283 1.0
e 213 67 1.0
e 213 50 3.0
e 214 160 1.0
e 214 267 1.0
e 215 616 1.0
e 215 207 1.0
e 216 50 1.0
e 216 178 1.0
e 217 150 47.0
e 217 373 24.0
e 217 539 47.0
e 217 589 32.0
e 217 127 17.0
e 217 155 32.0
e 217 138 39.0
e 217 289 46.0
e 217 267 23.0
e 217 300 31.0
e 217 290 39.0
e 217 40 8.0
e 217 147 42.0
e 217 268 10.0
e 218 175 1.0
e 218 354 1.0
e 219 368 25.0
e 219 191 33.0
e 219 596 8.0
e 219 240 34.0
e 219 417 49.0
e 219 260 8.0
e 219 129 13.0
e 219 401 23.0
e 219 624 40.0
e 219 110 26.0
e 219 427 5.0
e 219 130 28.0
e 219 473 39.0
e 219 322 5.0
e 219 536 11.0
e 219 23 8.0
e 220 443 2.0
e 220 104 2.0
e 221 384 1.0
e 221 103 29.0
e 222 140 2.0
e 222 612 1.0
e 223 625 31.0
e 223 575 2.0
e 224 540 1.0
e 224 153 1.0
e 225 389 2.0
e 225 242 1.0
e 226 558 23.0
e 226 441 5.0
e 226 60 43.0
e 226 220 36.0
e 226 578 39.0
e 226 129 35.0
e 226 261 24.0
e 226 565 44.0
e 226 108 21.0
e 226 323 33.0
e 226 386 45.0
e 226 404 6.0
e 226 561 22.0
e 226 590 25.0
e 226 399 8.0
e 226 110 10.0
e 227 94 30.0
e 227 607 23.0
e 227 179 20.0
e 227 166 19.0
e 227 493 34.0
e 227 395 28.0
e 227 316 7.0
e 227 446 20.0
e 227 62 3.0
e 227 129 37.0
e 227 149 1.0
e 227 555 30.0
e 227 159 16.0
e 227 260 39.0
e 227 130 8.0
e 227 168 19.0
e 228 533 1.0
e 228 552 1.0
e 229 228 1.0
e 229 530 1.0
e 230 318 1.0
e 230 23 1.0
e 231 85 1.0
e 231 252 38.0
e 232 75 1.0
e 232 126 1.0
e 233 512 2.0
e 233 579 1.0
e 234 509 1.0
e 234 602 1.0
e 235 182 1.0
e 235 84 1.0
e 236 479 1.0
e 236 46 2.0
e 237 321 2.0
e 237 569 1.0
e 238 20 1.0
e 238 134 1.0
e 239 371 1.0
e 239 141 1.0
e 240 21 1.0
e 240 507 2.0
e 241 603 1.0
e 241 424 2.0
e 242 281 1.0
e 242 320 1.0
e 243 428 1.0
e 243 387 2.0
e 244 354 1.0
e 244 249 1.0
e 245 282 1.0
e 245 48 2.0
e 246 477 1.0
e 246 316 1.0
e 247 255 2.0
e 247 73 1.0
e 248 204 2.0
e 248 140 1.0
e 249 391 1.0
e 249 171 3.0
e 250 180 1.0
e 250 247 1.0
e 251 149 1.0
e 251 485 1.0
e 252 629 26.0
e 252 383 46.0
e 252 157 39.0
e 252 97 43.0
e 252 58 30.0
e 252 60 9.0
e 252 261 1.0
e 252 208 23.0
e 252 606 33.0
e 252 99 47.0
e 252 599 2.0
e 252 448 1.0
e 252 66 8.0
e 252 403 5.0
e 253 251 1.0
e 253 332 13.0
e 254 370 2.0
e 254 355 1.0
e 255 374 1.0
e 255 271 1.0
e 256 284 1.0
e 256 257 1.0
e 257 73 1.0
e 257 67 2.0
e 258 574 1.0
e 258 351 2.0
e 259 459 1.0
e 259 136 1.0
e 260 468 15.0
e 260 319 10.0
e 260 617 12.0
e 260 310 4.0
e 260 621 28.0
e 260 26 41.0
e 260 176 1.0
e 260 147 24.0
e 260 149 6.0
e 260 388 16.0
e 260 330 41.0
e 260 541 44.0
e 260 151 47.0
e 260 526 4.0
e 261 392 1.0
e 261 54 1.0
e 262 481 1.0
e 262 39 1.0
e 263 34 1.0
e 263 580 1.0
e 264 186 1.0
e 264 62 1.0
e 265 57 2.0
e 265 132 1.0
e 266 314 1.0
e 266 24 1.0
e 267 183 1.0
e 267 552 1.0
e 268 231 1.0
e 268 294 1.0
e 269 224 38.0
e 269 494 37.0
e 269 239 40.0
e 269 442 19.0
e 269 130 11.0
e 269 446 11.0
e 269 4 2.0
e 269 234 2.0
e 269 311 6.0
e 269 168 29.0
e 269 484 4.0
e 269 434 1.0
e 269 512 36.0
e 269 499 16.0
e 269 235 45.0
e 269 490 46.0
e 270 397 21.0
e 270 179 16.0
e 270 25 11.0
e 270 290 7.0
e 270 497 34.0
e 270 578 43.0
e 270 536 26.0
e 270 71 41.0
e 270 47 31.0
e 270 86 5.0
e 270 220 33.0
e 270 103 36.0
e 270 450 35.0
e 270 189 1.0
e 270 131 31.0
e 270 491 29.0
e 271 258 1.0
e 271 433 1.0
e 272 398 2.0
e 272 579 2.0
e 273 57 1.0
e 273 398 2.0
e 274 611 1.0
e 274 351 1.0
e 275 546 1.0
e 275 214 1.0
e 276 263 1.0
e 276 444 1.0
e 277 205 1.0
e 277 597 1.0
e 278 282 10.0
e 278 201 11.0
e 278 546 5.0
e 278 301 26.0
e 278 524 36.0
e 278 463 5.0
e 278 607 46.0
e 278 47 45.0
e 278 529 1.0
e 278 429 6.0
e 278 220 10.0
e 278 194 7.0
e 278 323 9.0
e 279 413 1.0
e 279 440 1.0
e 280 139 1.0
e 280 303 1.0
e 281 207 1.0
e 281 546 1.0
e 282 160 1.0
e 282 256 1.0
e 283 264 2.0
e 283 22 1.0
e 284 534 1.0
e 284 59 2.0
e 285 317 1.0
e 285 597 1.0
e 286 510 1.0
e 286 314 1.0
e 287 28 1.0
e 287 238 1.0
e 288 347 1.0
e 288 469 1.0
e 289 341 1.0
e 289 436 1.0
e 290 8 1.0
e 290 327 1.0
e 291 186 1.0
e 291 404 1.0
e 292 605 2.0
e 292 188 1.0
e 293 159 3.0
e 293 449 1.0
e 294 237 1.0
e 294 186 1.0
e 295 333 1.0
e 295 172 1.0
e 296 372 1.0
e 296 462 1.0
e 297 282 1.0
e 297 559 1.0
e 298 274 1.0
e 298 531 1.0
e 299 474 1.0
e 299 548 1.0
e 300 187 25.0
e 300 208 11.0
e 300 179 39.0
e 300 417 19.0
e 300 586 38.0
e 300 517 19.0
e 300 72 20.0
e 300 512 3.0
e 300 395 10.0
e 300 536 22.0
e 300 626 14.0
e 300 555 44.0
e 300 131 14.0
e 300 478 36.0
e 300 439 15.0
e 301 525 1.0
e 301 162 1.0
e 302 275 1.0
e 302 489 1.0
e 303 276 1.0
e 303 57 1.0
e 304 128 1.0
e 304 461 1.0
e 305 312 1.0
e 305 245 1.0
e 306 190 2.0
e 306 268 1.0
e 307 262 1.0
e 307 390 1.0
e 308 595 1.0
e 308 193 1.0
e 309 274 1.0
e 309 562 48.0
e 310 137 1.0
e 310 346 1.0
e 311 338 9.0
e 311 418 1.0
e 312 182 1.0
e 312 598 2.0
e 313 78 3.0
e 313 44 4.0
e 314 291 2.0
e 314 377 1.0
e 315 206 1.0
e 315 244 1.0
e 316 613 1.0
e 316 520 1.0
e 317 523 1.0
e 317 449 1.0
e 318 559 1.0
e 318 609 1.0
e 319 119 1.0
e 319 549 1.0
e 320 107 14.0
e 320 312 1.0
e 321 608 3.0
e 321 264 1.0
e 322 232 1.0
e 322 197 2.0
e 323 258 1.0
e 323 381 1.0
e 324 17 11.0
e 324 504 4.0
e 324 60 43.0
e 324 349 12.0
e 324 543 35.0
e 324 260 8.0
e 324 135 35.0
e 324 70 45.0
e 324 528 39.0
e 324 499 10.0
e 324 536 27.0
e 324 545 13.0
e 324 388 15.0
e 324 439 15.0
e 324 590 1.0
e 325 111 1.0
e 325 345 1.0
e 326 417 3.0
e 326 592 2.0
e 327 600 1.0
e 327 231 2.0
e 328 452 2.0
e 328 495 1.0
e 329 98 2.0
e 329 277 1.0
e 330 373 2.0
e 330 280 1.0
e 331 98 24.0
e 331 439 19.0
e 331 269 40.0
e 331 42 24.0
e 331 442 39.0
e 331 405 21.0
e 331 457 2.0
e 331 565 21.0
e 331 272 46.0
e 331 562 19.0
e 331 96 46.0
e 331 425 28.0
e 331 1 1.0
e 331 364 9.0
e 331 291 21.0
e 331 634 42.0
e 332 278 45.0
e 332 183 2.0
e 332 396 39.0
e 332 411 43.0
e 332 458 33.0
e 332 454 5.0
e 332 6 19.0
e 332 99 38.0
e 332 76 17.0
e 332 365 48.0
e 332 502 4.0
e 332 70 5.0
e 332 222 44.0
e 333 124 1.0
e 333 233 1.0
e 334 571 1.0
e 334 126 1.0
e 335 103 40.0
e 335 483 2.0
e 336 530 48.0
e 336 76 5.0
e 336 99 49.0
e 336 361 9.0
e 336 229 39.0
e 336 230 6.0
e 336 607 24.0
e 336 13 34.0
e 336 296 23.0
e 336 479 34.0
e 336 427 44.0
e 336 164 45.0
e 337 571 1.0
e 337 432 1.0
e 338 326 30.0
e 338 277 8.0
e 338 406 21.0
e 338 70 15.0
e 338 412 49.0
e 338 269 28.0
e 338 171 2.0
e 338 389 35.0
e 338 135 36.0
e 338 414 22.0
e 338 482 39.0
e 338 248 46.0
e 338 543 34.0
e 338 428 9.0
e 339 486 1.0
e 339 69 1.0
e 340 250 1.0
e 340 129 5.0
e 341 143 1.0
e 341 104 2.0
e 342 167 36.0
e 342 485 19.0
e 342 491 9.0
e 342 76 44.0
e 342 396 46.0
e 342 608 36.0
e 342 515 25.0
e 342 617 28.0
e 342 625 41.0
e 342 2 8.0
e 342 61 1.0
e 342 543 31.0
e 342 555 36.0
e 342 349 25.0
e 342 503 5.0
e 343 266 1.0
e 343 487 2.0
e 344 207 1.0
e 344 396 1.0
e 345 356 2.0
e 345 117 1.0
e 346 161 1.0
e 346 35 34.0
e 347 118 1.0
e 347 528 36.0
e 348 286 1.0
e 348 548 1.0
e 349 526 1.0
e 349 566 1.0
e 350 553 2.0
e 350 532 2.0
e 351 576 1.0
e 351 406 13.0
e 352 549 35.0
e 352 177 33.0
e 352 9 5.0
e 352 543 8.0
e 352 87 6.0
e 352 618 38.0
e 352 358 5.0
e 352 7 22.0
e 352 33 49.0
e 352 202 25.0
e 352 154 38.0
e 352 158 16.0
e 352 179 21.0
e 352 342 27.0
e 352 562 44.0
e 352 482 9.0
e 353 181 1.0
e 353 142 1.0
e 354 361 1.0
e 354 10 1.0
e 355 367 1.0
e 355 563 1.0
e 356 178 1.0
e 356 305 1.0
e 357 39 1.0
e 357 84 1.0
e 358 166 2.0
e 358 290 2.0
e 359 14 2.0
e 359 355 1.0
e 360 551 1.0
e 360 102 1.0
e 361 313 1.0
e 361 223 2.0
e 362 0 1.0
e 362 286 1.0
e 363 105 1.0
e 363 56 2.0
e 364 540 1.0
e 364 496 2.0
e 365 533 1.0
e 365 268 1.0
e 366 574 2.0
e 366 558 1.0
e 367 217 2.0
e 367 335 1.0
e 368 114 1.0
e 368 544 2.0
e 369 99 2.0
e 369 459 1.0
e 370 46 2.0
e 370 357 1.0
e 371 273 2.0
e 371 163 7.0
e 372 594 1.0
e 372 469 1.0
e 373 576 2.0
e 373 570 2.0
e 374 313 6.0
e 374 195 1.0
e 375 494 1.0
e 375 464 1.0
e 376 587 1.0
e 376 485 1.0
e 377 36 1.0
e 377 184 1.0
e 378 416 3.0
e 378 559 2.0
e 379 510 1.0
e 379 317 1.0
e 380 619 1.0
e 380 283 1.0
e 381 81 2.0
e 381 604 2.0
e 382 88 1.0
e 382 281 1.0
e 383 408 1.0
e 383 421 2.0
e 384 554 1.0
e 384 283 2.0
e 385 422 1.0
e 385 289 1.0
e 386 328 2.0
e 386 477 2.0
e 387 164 2.0
e 387 96 1.0
e 388 238 1.0
e 388 635 2.0
e 389 343 2.0
e 389 382 2.0
e 390 210 2.0
e 390 614 1.0
e 391 163 9.0
e 391 447 1.0
e 392 532 2.0
e 392 194 1.0
e 393 353 1.0
e 393 258 1.0
e 394 159 2.0
e 394 339 1.0
e 395 593 2.0
e 395 466 1.0
e 396 297 1.0
e 396 104 2.0
e 397 241 2.0
e 397 141 1.0
e 398 106 1.0
e 398 121 1.0
e 399 397 3.0
e 399 381 2.0
e 400 581 1.0
e 400 238 1.0
e 401 123 2.0
e 401 422 1.0
e 402 508 1.0
e 402 575 1.0
e 403 31 2.0
e 403 399 2.0
e 404 207 1.0
e 404 137 1.0
e 405 318 1.0
e 405 218 1.0
e 406 313 45.0
e 406 475 39.0
e 406 562 37.0
e 406 135 37.0
e 406 588 34.0
e 406 430 26.0
e 406 82 15.0
e 406 2 28.0
e 406 407 26.0
e 406 77 29.0
e 406 80 13.0
e 406 543 19.0
e 406 458 39.0
e 407 113 1.0
e 407 124 2.0
e 408 187 1.0
e 408 139 1.0
e 409 378 1.0
e 409 287 2.0
e 410 37 2.0
e 410 163 36.0
e 411 128 1.0
e 411 64 1.0
e 412 186 2.0
e 412 342 13.0
e 413 8 1.0
e 413 576 1.0
e 414 622 1.0
e 414 200 1.0
e 415 528 40.0
e 415 233 1.0
e 416 74 1.0
e 416 424 2.0
e 417 212 1.0
e 417 630 1.0
e 418 55 1.0
e 418 105 1.0
e 419 506 1.0
e 419 215 1.0
e 420 539 1.0
e 420 128 1.0
e 421 429 1.0
e 421 74 1.0
e 422 461 1.0
e 422 614 1.0
e 423 484 2.0
e 423 308 1.0
e 424 68 2.0
e 424 123 1.0
e 425 276 1.0
e 425 363 1.0
e 426 323 1.0
e 426 264 1.0
e 427 355 1.0
e 427 334 2.0
e 428 348 1.0
e 428 134 1.0
e 429 559 1.0
e 429 469 1.0
e 430 302 1.0
e 430 564 1.0
e 431 440 1.0
e 431 348 1.0
e 432 342 17.0
e 432 104 1.0
e 433 423 1.0
e 433 516 1.0
e 434 95 1.0
e 434 0 1.0
e 435 457 1.0
e 435 89 1.0
e 436 571 1.0
e 436 322 2.0
e 437 120 1.0
e 437 552 1.0
e 438 400 2.0
e 438 208 1.0
e 439 45 39.0
e 439 32 2.0
e 439 43 11.0
e 439 278 22.0
e 439 555 42.0
e 439 518 37.0
e 439 270 45.0
e 439 502 18.0
e 439 151 16.0
e 439 234 10.0
e 439 210 32.0
e 439 48 19.0
e 439 520 39.0
e 440 426 1.0
e 440 78 1.0
e 441 133 1.0
e 442 85 1.0
e 442 418 1.0
e 443 209 2.0
e 443 314 1.0
e 444 522 1.0
e 444 511 1.0
e 445 387 1.0
e 445 296 1.0
e 446 53 17.0
e 446 120 15.0
e 446 465 10.0
e 446 100 8.0
e 446 236 37.0
e 446 217 41.0
e 446 14 17.0
e 446 211 28.0
e 446 406 47.0
e 446 352 13.0
e 446 358 46.0
e 446 195 23.0
e 446 196 33.0
e 446 154 17.0
e 447 459 1.0
e 447 422 1.0
e 448 485 1.0
e 448 55 2.0
e 449 391 1.0
e 449 636 1.0
e 450 567 1.0
e 450 611 1.0
e 451 297 1.0
e 451 293 2.0
e 452 576 1.0
e 452 121 2.0
e 453 329 1.0
e 453 487 1.0
e 454 239 1.0
e 454 630 1.0
e 455 450 2.0
e 455 150 2.0
e 456 638 2.0
e 456 31 3.0
e 457 408 1.0
e 457 335 2.0
e 458 343 1.0
e 458 302 1.0
e 459 92 1.0
e 459 418 1.0
e 460 134 1.0
e 460 548 1.0
e 461 514 1.0
e 461 478 1.0
e 462 325 2.0
e 462 79 1.0
e 463 540 1.0
e 463 257 2.0
e 464 413 1.0
e 464 560 1.0
e 465 193 2.0
e 465 481 1.0
e 466 463 1.0
e 466 536 14.0
e 467 431 11.0
e 467 270 29.0
e 467 618 38.0
e 468 637 1.0
e 468 254 1.0
e 469 201 1.0
e 469 72 5.0
e 470 113 1.0
e 470 34 1.0
e 471 284 2.0
e 471 150 2.0
e 472 161 1.0
e 472 549 1.0
e 473 575 1.0
e 473 452 1.0
e 474 351 1.0
e 474 590 1.0
e 475 594 1.0
e 475 537 2.0
e 476 169 1.0
e 476 610 3.0
e 477 62 2.0
e 477 50 1.0
e 478 169 1.0
e 478 585 1.0
e 479 603 1.0
e 479 144 2.0
e 480 406 39.0
e 480 321 1.0
e 481 51 1.0
e 481 54 1.0
e 482 620 1.0
e 482 467 11.0
e 483 573 11.0
e 483 557 2.0
e 484 382 1.0
e 484 448 1.0
e 485 606 1.0
e 485 46 1.0
e 486 146 2.0
e 486 198 1.0
e 487 169 2.0
e 487 423 1.0
e 488 393 1.0
e 488 439 33.0
e 489 126 1.0
e 489 615 1.0
e 490 259 2.0
e 490 97 1.0
e 491 278 24.0
e 491 175 1.0
e 492 177 2.0
e 492 347 1.0
e 493 83 1.0
e 493 432 2.0
e 494 341 1.0
e 494 475 2.0
e 495 415 2.0
e 495 315 1.0
e 496 495 1.0
e 496 312 2.0
e 497 406 24.0
e 497 214 2.0
e 498 625 46.0
e 498 440 1.0
e 499 321 2.0
e 499 625 31.0
e 500 225 1.0
e 500 368 2.0
e 501 199 1.0
e 501 148 1.0
e 502 629 2.0
e 502 534 2.0
e 503 402 1.0
e 503 215 1.0
e 504 610 2.0
e 504 409 1.0
e 505 139 1.0
e 505 530 1.0
e 506 187 1.0
e 506 587 1.0
e 507 453 1.0
e 507 614 1.0
e 508 433 1.0
e 508 137 1.0
e 509 214 1.0
e 509 624 1.0
e 510 498 1.0
e 510 93 1.0
e 511 140 1.0
e 511 276 1.0
e 512 577 2.0
e 512 336 24.0
e 513 53 1.0
e 513 150 1.0
e 514 115 1.0
e 514 101 1.0
e 515 152 1.0
e 515 490 1.0
e 516 570 1.0
e 516 497 2.0
e 517 380 1.0
e 517 318 1.0
e 518 572 1.0
e 518 65 2.0
e 519 344 1.0
e 519 583 1.0
e 520 118 1.0
e 520 332 2.0
e 521 121 1.0
e 521 9 1.0
e 522 390 1.0
e 522 605 1.0
e 523 522 1.0
e 523 440 1.0
e 524 38 2.0
e 524 288 1.0
e 525 112 1.0
e 525 161 1.0
e 526 352 36.0
e 526 207 4.0
e 527 344 2.0
e 527 216 3.0
e 528 441 15.0
e 528 438 5.0
e 528 326 4.0
e 528 625 42.0
e 528 430 39.0
e 528 26 22.0
e 528 618 36.0
e 528 435 33.0
e 528 101 16.0
e 528 374 40.0
e 528 103 25.0
e 528 332 12.0
e 528 496 6.0
e 528 543 46.0
e 529 34 1.0
e 529 283 2.0
e 530 487 2.0
e 530 492 1.0
e 531 392 1.0
e 531 139 1.0
e 532 506 1.0
e 532 354 2.0
e 533 436 1.0
e 533 241 1.0
e 534 216 2.0
e 534 174 2.0
e 535 285 1.0
e 535 12 1.0
e 536 36 17.0
e 536 273 24.0
e 536 105 18.0
e 536 331 41.0
e 536 223 2.0
e 536 39 12.0
e 536 63 37.0
e 536 158 21.0
e 536 327 12.0
e 536 7 4.0
e 537 229 1.0
e 537 359 1.0
e 538 470 1.0
e 538 626 1.0
e 539 513 1.0
e 539 295 1.0
e 540 375 1.0
e 540 488 1.0
e 541 579 1.0
e 541 507 1.0
e 542 206 1.0
e 542 43 1.0
e 543 478 23.0
e 543 387 45.0
e 543 618 17.0
e 543 269 30.0
e 544 167 1.0
e 544 488 1.0
e 545 298 1.0
e 545 363 1.0
e 546 122 1.0
e 546 131 1.0
e 547 180 1.0
e 547 306 1.0
e 548 587 2.0
e 548 11 3.0
e 549 453 1.0
e 549 11 1.0
e 550 170 1.0
e 550 409 1.0
e 551 152 3.0
e 551 432 2.0
e 552 432 1.0
e 552 95 1.0
e 553 346 1.0
e 553 238 1.0
e 554 422 1.0
e 554 380 1.0
e 555 280 14.0
e 555 476 7.0
e 555 340 23.0
e 555 162 30.0
e 555 204 32.0
e 555 524 31.0
e 555 260 42.0
e 555 635 27.0
e 555 414 7.0
e 556 218 1.0
e 556 136 1.0
e 557 610 1.0
e 557 513 1.0
e 558 201 2.0
e 558 192 1.0
e 559 543 26.0
e 559 73 2.0
e 560 339 1.0
e 560 201 2.0
e 561 3 1.0
e 561 638 1.0
e 562 494 47.0
e 562 427 29.0
e 562 278 39.0
e 562 332 34.0
e 562 106 47.0
e 562 410 19.0
e 562 324 19.0
e 562 555 8.0
e 562 64 38.0
e 562 414 34.0
e 562 566 6.0
e 563 587 1.0
e 563 124 2.0
e 564 20 1.0
e 564 84 1.0
e 565 61 2.0
e 565 532 2.0
e 566 372 1.0
e 566 137 1.0
e 567 116 1.0
e 567 481 2.0
e 568 540 1.0
e 568 303 1.0
e 569 228 1.0
e 569 538 1.0
e 570 79 1.0
e 570 368 1.0
e 571 189 1.0
e 571 574 1.0
e 572 597 1.0
e 572 516 1.0
e 573 399 1.0
e 573 372 48.0
e 573 486 8.0
e 573 471 14.0
e 573 163 44.0
e 573 380 41.0
e 573 466 39.0
e 573 278 34.0
e 573 300 13.0
e 573 171 49.0
e 573 415 43.0
e 573 217 15.0
e 573 106 31.0
e 573 251 33.0
e 573 328 18.0
e 574 107 39.0
e 574 37 1.0
e 575 186 1.0
e 575 568 1.0
e 576 257 1.0
e 576 451 1.0
e 577 243 2.0
e 577 245 1.0
e 578 522 5.0
e 578 338 36.0
e 579 16 1.0
e 579 227 49.0
e 580 602 2.0
e 580 219 10.0
e 581 212 2.0
e 581 50 1.0
e 582 295 1.0
e 582 498 3.0
e 583 329 1.0
e 583 440 1.0
e 584 186 1.0
e 584 198 1.0
e 585 182 1.0
e 585 498 1.0
e 586 164 1.0
e 586 82 1.0
e 587 231 1.0
e 587 500 2.0
e 588 339 1.0
e 588 583 1.0
e 589 444 1.0
e 589 519 1.0
e 590 543 20.0
e 590 259 2.0
e 591 514 1.0
e 591 377 1.0
e 592 543 2.0
e 592 575 1.0
e 593 57 2.0
e 593 232 1.0
e 594 598 1.0
e 594 56 2.0
e 595 348 2.0
e 595 341 1.0
e 596 265 1.0
e 596 350 1.0
e 597 449 1.0
e 597 435 1.0
e 598 249 2.0
e 598 217 33.0
e 599 167 1.0
e 599 629 1.0
e 600 66 1.0
e 600 354 1.0
e 601 41 1.0
e 601 610 1.0
e 602 68 2.0
e 602 613 1.0
e 603 36 2.0
e 603 221 2.0
e 604 353 1.0
e 604 522 1.0
e 605 333 1.0
e 605 595 1.0
e 606 620 2.0
e 606 254 2.0
e 607 145 1.0
e 607 513 3.0
e 608 525 1.0
e 608 309 1.0
e 609 22 2.0
e 609 295 2.0
e 610 559 2.0
e 610 447 2.0
e 611 296 1.0
e 611 156 1.0
e 612 0 1.0
e 612 391 1.0
e 613 438 2.0
e 613 36 2.0
e 614 326 2.0
e 614 37 1.0
e 615 202 1.0
e 615 591 1.0
e 616 40 1.0
e 616 184 2.0
e 617 459 4.0
e 617 217 41.0
e 618 72 3.0
e 618 74 13.0
e 618 239 16.0
e 618 65 37.0
e 618 586 21.0
e 618 260 45.0
e 618 333 1.0
e 618 342 6.0
e 618 627 20.0
e 618 203 33.0
e 618 628 18.0
e 618 163 17.0
e 619 56 1.0
e 619 623 1.0
e 620 182 1.0
e 620 411 1.0
e 621 156 1.0
e 621 280 2.0
e 622 365 3.0
e 622 309 2.0
e 623 391 1.0
e 623 585 1.0
e 624 483 1.0
e 624 423 1.0
e 625 282 26.0
e 625 243 47.0
e 625 252 24.0
e 625 163 19.0
e 625 304 31.0
e 625 213 40.0
e 625 336 15.0
e 625 65 27.0
e 625 205 42.0
e 625 211 20.0
e 625 582 37.0
e 626 94 1.0
e 626 555 4.0
e 627 265 2.0
e 627 240 1.0
e 628 386 1.0
e 628 85 1.0
e 629 245 1.0
e 629 369 1.0
e 630 142 1.0
e 630 114 1.0
e 631 338 25.0
e 631 627 1.0
e 632 495 1.0
e 632 120 2.0
e 633 185 1.0
e 633 368 1.0
e 634 389 2.0
e 634 56 1.0
e 635 340 2.0
e 635 322 1.0
e 636 250 1.0
e 636 282 1.0
e 637 161 2.0
e 637 260 27.0
e 638 507 1.0
e 638 365 2.0
e 639 571 1.0
e 639 597 1.0
